************************************************************************
file with basedata            : md346_.bas
initial value random generator: 1225824544
************************************************************************
projects                      :  1
jobs (incl. supersource/sink ):  22
horizon                       :  153
RESOURCES
  - renewable                 :  2   R
  - nonrenewable              :  2   N
  - doubly constrained        :  0   D
************************************************************************
PROJECT INFORMATION:
pronr.  #jobs rel.date duedate tardcost  MPM-Time
    1     20      0       27       10       27
************************************************************************
PRECEDENCE RELATIONS:
jobnr.    #modes  #successors   successors
   1        1          3           2   3   4
   2        3          3          11  12  18
   3        3          1          12
   4        3          3           5   6   7
   5        3          3           8   9  16
   6        3          3          11  12  13
   7        3          3           8  15  19
   8        3          1          20
   9        3          3          10  11  13
  10        3          1          17
  11        3          2          15  20
  12        3          1          14
  13        3          2          14  19
  14        3          2          15  17
  15        3          1          21
  16        3          2          18  21
  17        3          2          20  21
  18        3          1          19
  19        3          1          22
  20        3          1          22
  21        3          1          22
  22        1          0        
************************************************************************
REQUESTS/DURATIONS:
jobnr. mode duration  R 1  R 2  N 1  N 2
------------------------------------------------------------------------
  1      1     0       0    0    0    0
  2      1    10       7    0    0    3
         2    10       3    0    0    5
         3    10       0    5    5    0
  3      1     5       0    5    0    2
         2     5       0    5    2    0
         3     7       8    0    1    0
  4      1     7       0    7    4    0
         2     7       2    0    0    7
         3    10       0    8    0    6
  5      1     3       7    0    8    0
         2     4       0    6    0    6
         3    10       0    6    8    0
  6      1     6       0    7    8    0
         2     8       1    0    0    8
         3     9       0    4    0    5
  7      1     7      10    0    5    0
         2     8       0    9    3    0
         3    10       8    0    0    6
  8      1     3       0    9    0   10
         2     5       0    6    9    0
         3     9       0    4    0    7
  9      1     1       0    6    0    8
         2     6       0    6    8    0
         3    10       0    6    6    0
 10      1     3       0    5    0    8
         2     5       8    0    0    4
         3     6       0    1    6    0
 11      1     4       0    3    5    0
         2     9       0    2    0    8
         3     9       0    3    0    7
 12      1     4       5    0    7    0
         2     5       5    0    6    0
         3     7       4    0    6    0
 13      1     2       6    0    0    7
         2     8       0    9    0    6
         3    10       0    6    0    6
 14      1     1       0    5    0    3
         2     2       2    0    0    3
         3     2       0    5    2    0
 15      1     2       0   10    4    0
         2     4       0    9    0    9
         3     4       4    0    3    0
 16      1     1       6    0    0   10
         2     7       5    0    0    9
         3     7       0    9    4    0
 17      1     5       6    0    6    0
         2     5       0    9    4    0
         3     6       0    8    0    4
 18      1     2       7    0    7    0
         2     5       6    0    4    0
         3     5       0    9    4    0
 19      1     5       0    8    9    0
         2     6       5    0    7    0
         3     9       0    7    5    0
 20      1     4       0   10    0    4
         2     4       9    0    0    4
         3     6       0   10    1    0
 21      1     2       0    9    0    5
         2     4       0    4    3    0
         3     7       7    0    2    0
 22      1     0       0    0    0    0
************************************************************************
RESOURCEAVAILABILITIES:
  R 1  R 2  N 1  N 2
   15   21  103  110
************************************************************************
MAXIMAL LAGS:
from  to  type  delay
    1   22   ES      0
    1    2   ES      0
    2   22   ES      0
    1    3   ES      0
    3   22   ES      0
    1    4   ES      0
    4   22   ES      0
    1    5   ES      0
    5   22   ES      0
    1    6   ES      0
    6   22   ES      0
    1    7   ES      0
    7   22   ES      0
    1    8   ES      0
    8   22   ES      0
    1    9   ES      0
    9   22   ES      0
    1   10   ES      0
   10   22   ES      0
    1   11   ES      0
   11   22   ES      0
    1   12   ES      0
   12   22   ES      0
    1   13   ES      0
   13   22   ES      0
    1   14   ES      0
   14   22   ES      0
    1   15   ES      0
   15   22   ES      0
    1   16   ES      0
   16   22   ES      0
    1   17   ES      0
   17   22   ES      0
    1   18   ES      0
   18   22   ES      0
    1   19   ES      0
   19   22   ES      0
    1   20   ES      0
   20   22   ES      0
    1   21   ES      0
   21   22   ES      0
    1   22   ES      0
    2   11   SS    -10
    2   11   SE     12
    2   11   ES     12
    2   11   EE     12
    2   12   SS     -4
    2   12   SE     -7
    2   12   ES     -9
    2   12   EE     12
    2   18   SS      2
    2   18   SE     -2
    2   18   ES     -9
    2   18   EE      4
    3   12   SS     12
    3   12   SE     12
    3   12   ES      5
    3   12   EE      2
    4    5   SS      4
    4    5   SE     -9
    4    5   ES      3
    4    5   EE      9
    4    6   SS      7
    4    6   SE     -4
    4    6   ES    -10
    4    6   EE     -1
    4    7   SS    -10
    4    7   SE     -1
    4    7   ES     -7
    4    7   EE      0
    5    8   SS     -6
    5    8   SE      5
    5    8   ES     -4
    5    8   EE     11
    5    9   SS    -12
    5    9   SE      7
    5    9   ES     12
    5    9   EE    -10
    5   16   SS    -10
    5   16   SE     -7
    5   16   ES     -8
    5   16   EE     -2
    6   11   SS     -7
    6   11   SE      4
    6   11   ES     10
    6   11   EE      5
    6   12   SS     -6
    6   12   SE      3
    6   12   ES     12
    6   12   EE      8
    6   13   SS     -1
    6   13   SE    -12
    6   13   ES     -2
    6   13   EE      0
    7    8   SS     12
    7    8   SE      1
    7    8   ES     -9
    7    8   EE      4
    7   15   SS     12
    7   15   SE      0
    7   15   ES     -6
    7   15   EE     -7
    7   19   SS     -6
    7   19   SE      7
    7   19   ES      8
    7   19   EE      3
    8   20   SS     12
    8   20   SE      6
    8   20   ES     11
    8   20   EE     10
    9   10   SS    -10
    9   10   SE     11
    9   10   ES     -5
    9   10   EE      9
    9   11   SS     12
    9   11   SE      3
    9   11   ES      5
    9   11   EE     12
    9   13   SS      2
    9   13   SE      0
    9   13   ES     -2
    9   13   EE      8
   10   17   SS     -1
   10   17   SE     -6
   10   17   ES    -11
   10   17   EE    -11
   11   15   SS      2
   11   15   SE     -6
   11   15   ES    -12
   11   15   EE      6
   11   20   SS     -1
   11   20   SE    -12
   11   20   ES      9
   11   20   EE     -1
   12   14   SS      8
   12   14   SE     -2
   12   14   ES      1
   12   14   EE     11
   13   14   SS    -12
   13   14   SE     -2
   13   14   ES      2
   13   14   EE    -10
   13   19   SS     -8
   13   19   SE     -9
   13   19   ES      7
   13   19   EE      4
   14   15   SS      5
   14   15   SE     12
   14   15   ES     -9
   14   15   EE      6
   14   17   SS     -8
   14   17   SE      3
   14   17   ES      3
   14   17   EE      5
   15   21   SS      5
   15   21   SE     11
   15   21   ES     12
   15   21   EE     -2
   16   18   SS     -9
   16   18   SE      7
   16   18   ES    -11
   16   18   EE      8
   16   21   SS     -2
   16   21   SE     -5
   16   21   ES     -3
   16   21   EE      5
   17   20   SS      1
   17   20   SE     -3
   17   20   ES    -11
   17   20   EE     -9
   17   21   SS    -11
   17   21   SE     -3
   17   21   ES      9
   17   21   EE     -8
   18   19   SS     10
   18   19   SE     -4
   19   18   SE      0
   18   19   ES      0
   18   19   EE     -8
************************************************************************
